
Gurobi 9.1.2 (win64) logging started Tue Dec  7 12:36:41 2021

Gurobi Optimizer version 9.1.2 build v9.1.2rc0 (win64)
Thread count: 8 physical cores, 8 logical processors, using up to 8 threads
Optimize a model with 1 rows, 19 columns and 18 nonzeros
Model fingerprint: 0xa192c775
Variable types: 1 continuous, 18 integer (18 binary)
Coefficient statistics:
  Matrix range     [1e+00, 1e+01]
  Objective range  [1e+00, 1e+00]
  Bounds range     [5e+00, 5e+00]
  RHS range        [1e+01, 1e+01]
Presolve time: 0.00s
Presolved: 1 rows, 19 columns, 18 nonzeros
Variable types: 1 continuous, 18 integer (18 binary)

Root simplex log...

Iteration    Objective       Primal Inf.    Dual Inf.      Time
       0   -4.8181372e+00   1.040684e+00   0.000000e+00     14s
       3   -4.0316253e+00   0.000000e+00   0.000000e+00     14s

Root relaxation: objective -4.031625e+00, 3 iterations, 0.00 seconds

    Nodes    |    Current Node    |     Objective Bounds      |     Work
 Expl Unexpl |  Obj  Depth IntInf | Incumbent    BestBd   Gap | It/Node Time

     0     0   -4.03163    0    1          -   -4.03163      -     -   14s
H    0     0                       0.1900654   -4.03163  2221%     -   14s
     0     0     cutoff    0         0.19007    0.19007  0.00%     -   14s

Cutting planes:
  Cover: 1
  MIR: 2
  StrongCG: 1
  Lazy constraints: 3

Explored 1 nodes (5 simplex iterations) in 14.36 seconds
Thread count was 8 (of 8 available processors)

Solution count 1: 0.190065 

Optimal solution found (tolerance 1.00e-04)
Best objective 1.900654360766e-01, best bound 1.900654360766e-01, gap 0.0000%

User-callback calls 87, time in user-callback 18.20 sec
